1
941 420 937  430
20
672 220 762  71 221
219 95 412  266 219
551 129 165  256 275
741 350 173  34 148
347 362 253  6 56
482 736 220  37 120
388 673 87  217 142
582 335 206  280 270
659 465 38  282 56
61 704 719  232 75
367 498 59  286 202
575 164 70  81 128
187 518 709  187 165
111 47 772  131 248
660 228 731  235 226
420 737 366  285 61
283 182 778  183 240
531 436 429  258 281
620 481 79  187 28
676 569 57  43 105
